SimulationType               MolecularDynamics
NumberOfCycles               10000
NumberOfEquilibrationCycles  10000
PrintEvery                   1000

Ensemble                     MuPTPR
NPTPRCellType                RegularUpperTriangle

Forcefield                   Dubbeldam2007FlexibleIRMOF-1
CutOff                       12.0

Framework 0
FrameworkName IRMOF-1
HeliumVoidFraction 0.801937
UnitCells 1 1 1
ExternalTemperature 298.0
ExternalPressure 1500000.0

FlexibleFramework yes
FrameworkDefinitions Dubbeldam2007FlexibleIRMOF-1

Component 0 MoleculeName              CO2
            MoleculeDefinition        ExampleDefinitions
            SwapProbability           1.0
            CreateNumberOfMolecules   100
