SimulationType                MonteCarlo
NumberOfCycles                0
NumberOfInitializationCycles  0
PrintEvery                    100
RestartFile                   no

Forcefield                    ExampleMOFsForceField
UseChargesFromCIFFile         yes

ChargeFromChargeEquilibration    yes
ChargeEquilibrationPeriodic      yes
ChargeEquilibrationEwald         yes
SymmetrizeFrameworkCharges       no

Framework 0
FrameworkName MIL-47
UnitCells 1 1 1
HeliumVoidFraction 0.61
ExternalTemperature 323.0
ExternalPressure 100000.0

Component 0 MoleculeName             N2
            MoleculeDefinition       ExampleDefinitions
            TranslationProbability   0.5
            RotationProbability      0.5
            ReinsertionProbability   0.5
            SwapProbability          1.0
            CreateNumberOfMolecules  0

