SimulationType                   Minimization
NumberOfCycles                   1
NumberOfEquilibrationCycles      0
NumberOfInitializationCycles     0
PrintEvery                       10
RestartFile                      no

Ensemble                         NPTPR
NPTPRCellType                    RegularUpperTriangle

ComputeElasticConstants yes

RemoveBondNeighboursFromLongRangeInteraction yes
RemoveBendNeighboursFromLongRangeInteraction no
RemoveTorsionNeighboursFromLongRangeInteraction no

ChargeMethod                               Ewald
InternalFrameworkLennardJonesInteractions  yes
CutOff                                     12.0
TimeStep                                   0.0005
Forcefield                                 CoreShellSchroderSauer
EwaldPrecision                             1e-10

Framework 0
FrameworkName CHA_SI
RemoveAtomNumberCodeFromLabel yes
UnitCells 1 1 1
ReplicaUnitCells 3 3 3
ExternalTemperature 77.0
ExternalPressure    0.0
Movies yes
WriteMoviesEvery 1

FlexibleFramework                yes
FrameworkDefinitions             CoreShellSchroderSauer

