SimulationType        MonteCarlo
NumberOfCycles        25000
PrintEvery            1000
PrintPropertiesEvery  1000

Forcefield            GarciaPerez2006

Box 0
BoxLengths 30 30 30
ExternalTemperature 573.0

Component 0 MoleculeName              C5
            MoleculeDefinition        TraPPE
            WidomProbability          1.0
            CreateNumberOfMolecules   0

Component 1 MoleculeName              C6
            MoleculeDefinition        TraPPE
            WidomProbability          1.0
            CreateNumberOfMolecules   0

Component 2 MoleculeName              C7
            MoleculeDefinition        TraPPE
            WidomProbability          1.0
            CreateNumberOfMolecules   0

Component 3 MoleculeName              C8
            MoleculeDefinition        TraPPE
            WidomProbability          1.0
            CreateNumberOfMolecules   0

Component 4 MoleculeName              C9
            MoleculeDefinition        TraPPE
            WidomProbability          1.0
            CreateNumberOfMolecules   0

