SimulationType                MonteCarlo
NumberOfCycles                10000
NumberOfInitializationCycles  0
PrintEvery                    100
RestartFile                   no

Forcefield                    ExampleMOFsForceField
UseChargesFromCIFFile         yes

Framework 0
FrameworkName MIL-47
UnitCells 4 2 2
HeliumVoidFraction 0.61
ExternalTemperature 300.0

Component 0 MoleculeName             N2
            MoleculeDefinition       ExampleDefinitions
            IdealGasRosenbluthWeight 1.0
            WidomProbability         1.0
            CreateNumberOfMolecules  0

