SimulationType                MolecularDynamics
NumberOfCycles                500000
NumberOfEquilibrationCycles   100000
NumberOfInitializationCycles  1000
PrintEvery                    5000
RestartFile                   no

Ensemble                      NVT

ChargeMethod                  Ewald
CutOff                        12.0
TimeStep                      0.0005
Forcefield                    Local
EwaldPrecision                1e-6

Framework 0
FrameworkName IRMOF-1
UnitCells 1 1 1
ExternalTemperature 298.0
ComputeMSD yes
PrintMSDEvery 5000

Component 0 MoleculeName              benzene
            MoleculeDefinition        Local
            IdealGasRosenbluthWeight  1.0
            TranslationProbability    1.0
            RotationProbability       1.0
            ReinsertionProbability    1.0
            CreateNumberOfMolecules   16
