SimulationType        MonteCarlo
NumberOfCycles        500000
PrintEvery            10000
PrintPropertiesEvery  10000

Forcefield            ExampleMOFsForceField

Framework 0
FrameworkName IRMOF-1
UnitCells 1 1 1
ExternalTemperature 298.0

Component 0 MoleculeName             helium
            MoleculeDefinition       ExampleDefinitions
            WidomProbability         1.0
            CreateNumberOfMolecules  0

