SimulationType                   Minimization
NumberOfCycles                   1
NumberOfEquilibrationCycles      0
NumberOfInitializationCycles     0
PrintEvery                       10
RestartFile                      no

ComputeElasticConstants yes

RemoveBondNeighboursFromLongRangeInteraction yes
RemoveBendNeighboursFromLongRangeInteraction no
RemoveTorsionNeighboursFromLongRangeInteraction no

Ensemble                         NPTPR
NPTPRCellType                    RegularUpperTriangle

ChargeMethod                               Ewald
InternalFrameworkLennardJonesInteractions  yes
CutOff                                     12.0
TimeStep                                   0.0005
Forcefield                                 CoreShellCatlow
EwaldPrecision                             1e-10

Framework 0
FrameworkName CHA_SI
RemoveAtomNumberCodeFromLabel yes
UnitCells 1 1 1
ReplicaUnitCells 3 3 3
ExternalTemperature 77.0
ExternalPressure    5e9
Movies yes
WriteMoviesEvery 10

FlexibleFramework                yes
FrameworkDefinitions             CoreShellCatlow

