SimulationType                MonteCarlo
NumberOfCycles                10000
NumberOfInitializationCycles  100
PrintEvery                    100
RestartFile                   no

Forcefield                    ExampleMOFsForceField
UseChargesFromCIFFile         yes

Framework 0
FrameworkName MIL-47
UnitCells 4 2 2
HeliumVoidFraction 0.61
ExternalTemperature 300.0
ExternalPressure 0.0

Component 0 MoleculeName             N2
            MoleculeDefinition       ExampleDefinitions
            TranslationProbability   0.5
            RotationProbability      0.5
            ReinsertionProbability   0.5
            CreateNumberOfMolecules  1
