SimulationType        MonteCarlo
NumberOfCycles        10000
PrintEvery            100
PrintPropertiesEvery  100

Forcefield GenericMOFs
CutOff 12.8

Framework 0
FrameworkName MOF-177
UnitCells 1 1 1
SurfaceAreaProbeDistance Sigma

Component 0 MoleculeName             N2
            StartingBead             0
            MoleculeDefinition       TraPPE
            SurfaceAreaProbability   1.0
            CreateNumberOfMolecules  0


