SimulationType                MonteCarlo
NumberOfCycles                200000
NumberOfInitializationCycles  50000
NumberOfEquilibrationCycles   50000
PrintEvery                    5000
RestartFile                   no

ChargeMethod                  Ewald
Forcefield                    ExampleZeolitesForceField
CutOffVDW                     10.0
CutOffCharge                  10.0
RemoveAtomNumberCodeFromLabel yes

Framework             0
FrameworkName         MFI_SI
UseChargesFromCIFFile no
UnitCells             2 2 2
HeliumVoidFraction    0.29
ExternalTemperature   353
ExternalPressure      1e7


Component 0 MoleculeName                  CO2
            MoleculeDefinition            ExampleDefinitions
            IdealGasRosenbluthWeight      1.0
            FugacityCoefficient           1.0
            TranslationProbability        1.0
            RotationProbability           1.0
            ReinsertionProbability        1.0
            PartialReinsertionProbability 0.0
            IdentityChangeProbability     0.0
            CFSwapLambdaProbability       1.0
            CreateNumberOfMolecules       0
