SimulationType                MolecularDynamics
NumberOfCycles                1000000
NumberOfEquilibrationCycles   10000
NumberOfInitializationCycles  100
PrintEvery                    5000

Ensemble                      NVT

ChargeMethod                  Ewald
CutOff                        12.0
TimeStep                      0.0005
Forcefield                    Local
EwaldPrecision                1e-6

Framework 0
FrameworkName IRMOF-10
UnitCells 1 1 1
ExternalTemperature 298.0
Movies no
WriteMoviesEvery 1000

FrameworkDefinitions Local
FlexibleFramework yes

Component 0 MoleculeName              benzene
            MoleculeDefinition        ExampleDefinitions
            IdealGasRosenbluthWeight  1.0
            TranslationProbability    1.0
            RotationProbability       1.0
            ReinsertionProbability    1.0
            CreateNumberOfMolecules   16
