SimulationType                MonteCarlo
NumberOfCycles                25000
NumberOfInitializationCycles  5000
PrintEvery                    1000

ContinueAfterCrash            no
WriteBinaryRestartFileEvery   2000

Forcefield                    GarciaPerez2006
RemoveAtomNumberCodeFromLabel yes

Framework 0
FrameworkName MFI_SI
UnitCells 2 2 2
HeliumVoidFraction 0.29
ExternalTemperature 300.0
ExternalPressure 1e4

Box 1
BoxLengths 110 110 110
CutOffCoulomb 50
ExternalTemperature 300.0
ExternalPressure 1e4

VolumeChangeProbability 0.2

Component 0 MoleculeName             methane
            MoleculeDefinition       TraPPE
            TranslationProbability   0.5
            ReinsertionProbability   0.5
            GibbsSwapProbability     1.0
            CreateNumberOfMolecules  0 100

