SimulationType                MonteCarlo
NumberOfCycles                10000
NumberOfInitializationCycles  0
PrintEvery                    1000
PrintPropertiesEvery          1000

Forcefield                    ExampleZeolitesForceField

Framework 0
FrameworkName MFI_SI
RemoveAtomNumberCodeFromLabel yes
UnitCells 2 2 2
ExternalTemperature 573.0

Component 0 MoleculeName              pentane
            MoleculeDefinition        ExampleDefinitions
            IdealGasRosenbluthWeight  0.0639633
            WidomProbability          1.0
            CreateNumberOfMolecules   0

Component 1 MoleculeName              hexane
            MoleculeDefinition        ExampleDefinitions
            IdealGasRosenbluthWeight  0.0164786
            WidomProbability          1.0
            CreateNumberOfMolecules   0

Component 2 MoleculeName              heptane
            MoleculeDefinition        ExampleDefinitions
            IdealGasRosenbluthWeight  0.00425633
            WidomProbability          1.0
            CreateNumberOfMolecules   0

Component 3 MoleculeName              octane
            MoleculeDefinition        ExampleDefinitions
            IdealGasRosenbluthWeight  0.00110671
            WidomProbability          1.0
            CreateNumberOfMolecules   0

Component 4 MoleculeName              nonane
            MoleculeDefinition        ExampleDefinitions
            IdealGasRosenbluthWeight  0.000289443
            WidomProbability          1.0
            CreateNumberOfMolecules   0
