SimulationType        MonteCarlo
NumberOfCycles        25000
PrintEvery            1000
PrintPropertiesEvery  1000

Forcefield            ExampleZeolitesForceField

Box 0
BoxLengths 30 30 30
ExternalTemperature 433.0

Component 0 MoleculeName              hexane
            MoleculeDefinition        ExampleDefinitions
            WidomProbability          1.0
            CreateNumberOfMolecules   0

Component 1 MoleculeName              2-methylpentane
            MoleculeDefinition        ExampleDefinitions
            WidomProbability          1.0
            CreateNumberOfMolecules   0

Component 2 MoleculeName              3-methylpentane
            MoleculeDefinition        ExampleDefinitions
            WidomProbability          1.0
            CreateNumberOfMolecules   0

Component 3 MoleculeName              22-dimethylbutane
            MoleculeDefinition        ExampleDefinitions
            WidomProbability          1.0
            CreateNumberOfMolecules   0
