SimulationType                MonteCarlo
NumberOfCycles                0
NumberOfInitializationCycles  0
PrintEvery                    1000
RestartFile                   yes

VTKFractionalAdsorbateMin -0.04 -0.04 -0.04
VTKFractionalAdsorbateMax  1.04  1.04  1.04

ContinueAfterCrash no
WriteBinaryRestartFileEvery 5000

ChargeMethod                  Ewald
Forcefield                    GarciaPerez2006
RemoveAtomNumberCodeFromLabel yes

Framework           0
FrameworkName       MFI_SI
UnitCells           2 2 4
HeliumVoidFraction  0.292012
ExternalTemperature 433
ExternalPressure    100000.000000


Component 0 MoleculeName              hexane
            StartingBead              0
            MoleculeDefinition        TraPPE
            IdealGasRosenbluthWeight  0.00874526
            FugacityCoefficient       1.0
            TranslationProbability    1.0
            RotationProbability       1.0
            ReinsertionProbability    1.0
            CBMCProbability           1.0
            IdentityChangeProbability 0.0
            SwapProbability           1.0
            CreateNumberOfMolecules   0
