SimulationType                MolecularDynamics
NumberOfCycles                100000
NumberOfEquilibrationCycles   10000
NumberOfInitializationCycles  1000
PrintEvery                    5000
RestartFile                   no

Ensemble                      NVT

ChargeMethod                  Ewald
CutOff                        12.0
TimeStep                      0.0005
Forcefield                    Dubbeldam2007FlexibleIRMOF-1
EwaldPrecision                1e-6

Framework 0
FrameworkName IRMOF-1
UnitCells 1 1 1
ExternalTemperature 298.0

Component 0 MoleculeName              benzene
            StartingBead              0
            MoleculeDefinition        TraPPE
            IdealGasRosenbluthWeight  1.0
            TranslationProbability    1.0
            RotationProbability       1.0
            RegrowProbability         1.0
            CreateNumberOfMolecules   16
