SimulationType                   MonteCarlo
NumberOfCycles                   100000000
NumberOfInitializationCycles     1000
PrintEvery                       100

Forcefield                       ExampleZeolitesForceField

Framework                        0
FrameworkName                    LTA_SI
RemoveAtomNumberCodeFromLabel    yes
ShiftUnitCells                   0.0 0.0 0.0
UnitCells                        1 1 1
ExternalTemperature              600.0

WritedcTSTSnapShotsToFile        yes
PutMoleculeOnBarrier             yes
BarrierPosition                  0.5 0.25 0.25
WritedcTSTSnapShotsEvery         100


component 0 MoleculeName                     methane
            MoleculeDefinition               ExampleDefinitions
            TranslationProbability           1.0
              TranslationDirection             bc
            RotationProbability              1.0
            RegrowInPlaceProbability         1.0
            CreateNumberOfMolecules          0

component 1 MoleculeName                     methane
            MoleculeDefinition               ExampleDefinitions
            ComputeFreeEnergyProfile         yes
            BlockPockets                     yes
            BlockPocketsFileName             LTA_SI
            TranslationProbability           1.0
            RotationProbability              1.0
            ReinsertionProbability           1.0
            CreateNumberOfMolecules          63

