SimulationType                   MC
NumberOfCycles                   0

Forcefield                       GarciaPerez2006

VTKFractionalFrameworkBondsMin -0.01 -0.01 -0.01
VTKFractionalFrameworkBondsMax  1.01  1.01  1.01

Framework 0
FrameworkName MFI_SI
UnitCells 2 2 4
