SimulationType                MonteCarlo
NumberOfCycles                50000
NumberOfInitializationCycles  10000
PrintEvery                    5000
RestartFile                   no

ChargeMethod                  Ewald
CutOff                        12.0
Forcefield                    Dubbeldam2007FlexibleIRMOF-1
EwaldPrecision                1e-6
TimeStep                      0.0005

Framework 0
FrameworkName IRMOF-1
UnitCells 1 1 1
HeliumVoidFraction 0.801937
ExternalTemperature 298.0
ExternalPressure 100e3

FrameworkDefinitions Dubbeldam2007FlexibleIRMOF-1
FlexibleFramework yes

HybridNVEMoveProbability 1.0
  NumberOfHybridNVESteps 5
VolumeChangeProbability  1.0

Component 0 MoleculeName              CO2
            StartingBead              0
            MoleculeDefinition        TraPPE
            IdealGasRosenbluthWeight  1.0
            TranslationProbability    1.0
            RotationProbability       1.0
            ReinsertionProbability    1.0
            SwapProbability           1.0
            CreateNumberOfMolecules   0
