SimulationType                MonteCarlo
NumberOfCycles                25000
NumberOfInitializationCycles  10000
PrintEvery                    1000
RestartFile                   no

Forcefield                    Local

Box 0
BoxLengths 24.83 24.83 24.83
ComputeRDF yes
WriteRDFEvery 1000
ExternalTemperature 298.0

Component 0 MoleculeName             Tip5p
            MoleculeDefinition       Water
            TranslationProbability   0.5
            RotationProbability      0.5
            ReinsertionProbability   1.0
            CreateNumberOfMolecules  512
