SimulationType                   MC
NumberOfCycles                   0

Forcefield                       Local

Framework 0
FrameworkName NU-100SP
UnitCells 1 1 1
InputFileType cssr
ExternalTemperature 298.0

ModifyFrameworkAtomConnectedTo C C1 O
ModifyFrameworkAtomConnectedTo C C2 C1
ModifyFrameworkAtomConnectedTo C C3 C2 C2
ModifyFrameworkAtomConnectedTo C C4 C2
ModifyFrameworkAtomConnectedTo C C5 C4
ModifyFrameworkAtomConnectedTo C C6 C5
ModifyFrameworkAtomConnectedTo C C7 C6
ModifyFrameworkAtomConnectedTo C C8 C7
ModifyFrameworkAtomConnectedTo C C9 C8
ModifyFrameworkAtomConnectedTo C C10 C9
ModifyFrameworkAtomConnectedTo C C11 C10
ModifyFrameworkAtomConnectedTo C C12 C11
ModifyFrameworkAtomConnectedTo C C13 C12
ModifyFrameworkAtomConnectedTo C C14 C13
ModifyFrameworkAtomConnectedTo C C15 C14
ModifyFrameworkAtomConnectedTo H H1 C3
ModifyFrameworkAtomConnectedTo H H2 C4
ModifyFrameworkAtomConnectedTo H H3 C9
ModifyFrameworkAtomConnectedTo H H4 C10
ModifyFrameworkAtomConnectedTo H H5 C15
ModifyFrameworkAtomConnectedTo O O2 C1
ModifyFrameworkAtomConnectedTo Cu Cu O2

