SimulationType                   MD
NumberOfCycles                   100000000
NumberOfInitializationCycles     5000
NumberOfEquilibrationCycles      10000
PrintEvery                       10000

Forcefield                       ExampleZeolitesForceField

Framework                        0
FrameworkName                    LTA_SI
RemoveAtomNumberCodeFromLabel    yes
ShiftUnitCells                   0.0 0.0 0.0
UnitCells                        1 1 1
ExternalTemperature              600.0

ComputePositionHistogram         yes
WritePositionHistogramEvery      10000

component 0 MoleculeName                     methane
            MoleculeDefinition               ExampleDefinitions
            BlockPockets                     yes
            BlockPocketsFileName             LTA_SI
            TranslationProbability           1.0
            RotationProbability              1.0
            ReinsertionProbability           1.0
            CreateNumberOfMolecules          64

