SimulationType                MonteCarlo
NumberOfCycles                2000000
NumberOfInitializationCycles  200000
NumberOfEquilibrationCycles   200000
PrintEvery                    10000
PrintPropertiesEvery          10000
RestartFile                   no
ReducedUnits                  yes

ContinueAfterCrash no
WriteBinaryRestartFileEvery 5000

ChargeMethod                  None
Forcefield                    Local
CutOffVDW                     2.5

Box 0
BoxLengths 6 6 6
BoxAngles 90 90 90
ExternalTemperature 0.7

Box 1
BoxLengths 10 10 10
BoxAngles 90 90 90
ExternalTemperature 0.7

EnergyOverlapCriteria 1e4
OverlapDistance  0.0
OptimizeCFLambdaChange yes

GibbsVolumeChangeProbability 5.0

Component 0 MoleculeName              molecule
            StartingBead              0
            MoleculeDefinition        TraPPE
            IdealGasRosenbluthWeight  1.0
            CFLambdaHistogramSize     51
            FugacityCoefficient       1.0
            TranslationProbability    25.0
            ReinsertionProbability    25.0
            GibbsWidomProbability     25.0
            CFGibbsSwapFractionalMoleculeToOtherBoxMoveProbability 25.0
            CFGibbsLambdaChangeMoveProbability 50.0
            CFGibbsFractionalToIntegerMoveProbability 25.0
            CreateNumberOfMolecules   200 50
