SimulationType                MonteCarlo
NumberOfCycles                20000
NumberOfInitializationCycles  10000
NumberOfEquilibrationCycles   10000
PrintEvery                    100
PrintPropertiesEvery          5000
RestartFile                   no

ContinueAfterCrash no
WriteBinaryRestartFileEvery 5000

ChargeMethod                  Ewald
Forcefield                    GarciaPerez2006
CutOffVDW                     12.0
EnergyOverlapCriteria 1e5
OverlapDistance  0.01
OptimizeCFLambdaChange yes

Box 0
BoxLengths 30 30 30
BoxAngles 90 90 90
ExternalTemperature 250
ExternalPressure 1e6
ComputeMolecularPressure no

VolumeChangeProbability       0.05

Component 0 MoleculeName              CO2
            StartingBead              0
            MoleculeDefinition        TraPPE
            IdealGasRosenbluthWeight  1.0
            CFLambdaHistogramSize     51
            FugacityCoefficient       1.0
            TranslationProbability    1.0
            RotationProbability       1.0
            ReinsertionProbability    1.0
            CFWidomProbability        1.0
            WidomProbability          1.0
            CreateNumberOfMolecules   256
